NAME: Random_55_5
ELLAPSED_TIME_(ms): 0
TOUR_SIZE: 1221.3616
TOUR_SECTION
0
15
24
37
23
8
10
45
50
51
19
6
38
1
32
40
48
3
52
7
20
30
49
27
34
13
18
12
5
29
4
42
11
47
25
33
41
39
26
31
28
54
43
46
44
53
22
14
36
2
35
9
21
16
17
0
EOF
